33D32945 STP File, STP Format Version 1.0

SECTION Comments
Name "edge_n11_d5_s5"
Problem "Euclidean Steiner Tree Problem"
Remark "Generated with STPGenerator. 5 dimensions."
END

SECTION Graph
Nodes 11
END

SECTION Coordinates
DDDDD 0 0.2747455962 0.2747455962 0.2747455962 0.2747455962 0.2747455962
DDDDD 1 0.0464677648 0.0464677648 0.0464677648 0.0464677648 0.0464677648
DDDDD 2 0.9927552245 0.9927552245 0.9927552245 0.9927552245 0.9927552245
DDDDD 3 0.0800304450 0.0800304450 0.0800304450 0.0800304450 0.0800304450
DDDDD 4 0.1476887968 0.1476887968 0.1476887968 0.1476887968 0.1476887968
DDDDD 5 0.0796446726 0.0796446726 0.0796446726 0.0796446726 0.0796446726
DDDDD 6 0.2805664764 0.2805664764 0.2805664764 0.2805664764 0.2805664764
DDDDD 7 0.4484554052 0.4484554052 0.4484554052 0.4484554052 0.4484554052
DDDDD 8 0.4982478328 0.4982478328 0.4982478328 0.4982478328 0.4982478328
DDDDD 9 0.8940018629 0.8940018629 0.8940018629 0.8940018629 0.8940018629
DDDDD 10 0.0156746367 0.0156746367 0.0156746367 0.0156746367 0.0156746367
END
